Minimize
  - 25 y_0 - 18 y_1 - 13 y_2 - 12 y_3 - 20 y_4 - 6 y_5 - 31 y_6 - 10 y_7
   - 25 y_8 - 15 y_9 - 18 y_10 - 18 y_11 - 35 y_12 - 17 y_13 - 30 y_14
   - 17 y_15 - 17 y_16 - 26 y_17 - 22 y_18 - 9 y_19 - 30 y_20 - 16 y_21
   - 26 y_22 - 19 y_23 - 4 y_24 - 22 y_25 - 23 y_26 - 23 y_27 - 10 y_28
   - 18 y_29 - 7 y_30 - 29 y_31 - 17 y_32 - 27 y_33 - 5 y_34 - 15 y_35
   - 18 y_36 - 22 y_37 - 21 y_38 - 18 y_39 - 13 y_40 - 33 y_41 - 7 y_42
   - 35 y_43 - 25 y_44 - 23 y_46 - 30 y_47 - 25 y_48 - 20 y_49 - 3 y_50
   - 28 y_51 - 26 y_52 - 18 y_53 - 14 y_54 - 24 y_55 - 20 y_56 - 21 y_57
   - 11 y_58 - 15 y_59 - 32 y_60 - 16 y_61 - 14 y_62 - 10 y_63 - 21 y_64
   - 27 y_65 - 11 y_66 - 16 y_67 - 13 y_68 - 11 y_69 - 29 y_70 - 21 y_71
   - 28 y_72 - 18 y_73 - 24 y_74 - 30 y_75 - 21 y_76 - 20 y_77 - 15 y_78
   - 25 y_79 - 22 y_80 - 21 y_81 - 32 y_82 - 27 y_83 - 15 y_84 - 22 y_85
   - 22 y_86 - 23 y_87 - 7 y_88 - 25 y_89 - 19 y_90 - 31 y_91 - 7 y_92
   - 23 y_93 - 10 y_94 - 16 y_95 - 21 y_96 - 23 y_97 - 22 y_98 - 19 y_99
   + 1954 Constant
Subject To
 c_0: y_78 = 1
 c_1_0: y_0 + y_51 + y_97 >= 1
 c_1_1: y_1 + y_86 >= 1
 c_1_2: y_2 + y_16 + y_28 + y_54 >= 1
 c_1_3: y_3 + y_15 + y_61 >= 1
 c_1_4: y_4 + y_9 + y_38 + y_39 >= 1
 c_1_5: y_5 + y_42 + y_63 >= 1
 c_1_6: y_6 + y_31 >= 1
 c_1_7: y_7 + y_19 + y_66 + y_68 + y_69 >= 1
 c_1_8: y_8 + y_26 + y_33 + y_47 + y_98 >= 1
 c_1_9: y_4 + y_9 + y_10 + y_21 + y_39 + y_40 + y_59 + y_67 >= 1
 c_1_10: y_9 + y_10 + y_39 + y_40 + y_59 + y_67 >= 1
 c_1_11: y_11 + y_29 + y_35 + y_78 + y_90 >= 1
 c_1_12: y_12 >= 1
 c_1_13: y_13 + y_29 + y_35 + y_78 >= 1
 c_1_14: y_14 + y_33 + y_47 + y_91 >= 1
 c_1_15: y_3 + y_15 + y_23 + y_25 + y_36 + y_61 + y_81 >= 1
 c_1_16: y_2 + y_16 + y_37 + y_49 + y_76 + y_99 >= 1
 c_1_17: y_17 + y_20 + y_25 + y_33 + y_83 >= 1
 c_1_18: y_18 + y_53 + y_96 >= 1
 c_1_19: y_7 + y_19 + y_66 + y_69 >= 1
 c_1_20: y_17 + y_20 + y_83 >= 1
 c_1_21: y_9 + y_21 + y_38 >= 1
 c_1_22: y_22 + y_97 >= 1
 c_1_23: y_15 + y_23 + y_25 + y_36 + y_61 + y_81 >= 1
 c_1_24: y_24 + y_45 >= 1
 c_1_25: y_15 + y_17 + y_23 + y_25 + y_81 >= 1
 c_1_26: y_8 + y_26 + y_98 >= 1
 c_1_27: y_27 + y_87 + y_93 >= 1
 c_1_28: y_2 + y_28 + y_54 >= 1
 c_1_29: y_11 + y_13 + y_29 + y_35 + y_78 >= 1
 c_1_30: y_30 + y_50 + y_58 + y_92 >= 1
 c_1_31: y_6 + y_31 + y_52 >= 1
 c_1_32: y_32 >= 1
 c_1_33: y_8 + y_14 + y_17 + y_33 + y_83 >= 1
 c_1_34: y_34 + y_45 + y_88 >= 1
 c_1_35: y_11 + y_13 + y_29 + y_35 + y_78 >= 1
 c_1_36: y_15 + y_23 + y_36 + y_77 + y_81 >= 1
 c_1_37: y_16 + y_37 + y_44 + y_49 + y_76 + y_97 + y_99 >= 1
 c_1_38: y_4 + y_21 + y_38 >= 1
 c_1_39: y_4 + y_9 + y_10 + y_39 + y_40 + y_59 + y_67 >= 1
 c_1_40: y_9 + y_10 + y_39 + y_40 + y_59 + y_67 >= 1
 c_1_41: y_41 + y_43 + y_82 >= 1
 c_1_42: y_5 + y_42 + y_63 >= 1
 c_1_43: y_41 + y_43 + y_82 >= 1
 c_1_44: y_37 + y_44 + y_46 + y_76 >= 1
 c_1_45: y_24 + y_34 + y_45 + y_50 >= 1
 c_1_46: y_44 + y_46 + y_80 >= 1
 c_1_47: y_8 + y_14 + y_47 + y_91 >= 1
 c_1_48: y_48 >= 1
 c_1_49: y_16 + y_37 + y_49 + y_76 + y_97 + y_99 >= 1
 c_1_50: y_30 + y_45 + y_50 + y_92 >= 1
 c_1_51: y_0 + y_51 + y_70 + y_72 >= 1
 c_1_52: y_31 + y_52 + y_55 + y_74 + y_85 >= 1
 c_1_53: y_18 + y_53 + y_54 + y_84 + y_95 + y_96 >= 1
 c_1_54: y_2 + y_28 + y_53 + y_54 + y_84 + y_95 >= 1
 c_1_55: y_52 + y_55 + y_56 + y_85 >= 1
 c_1_56: y_55 + y_56 + y_73 + y_74 + y_85 >= 1
 c_1_57: y_57 + y_64 + y_79 >= 1
 c_1_58: y_30 + y_58 + y_92 >= 1
 c_1_59: y_9 + y_10 + y_39 + y_40 + y_59 + y_67 >= 1
 c_1_60: y_60 + y_65 + y_75 >= 1
 c_1_61: y_3 + y_15 + y_23 + y_61 >= 1
 c_1_62: y_62 >= 1
 c_1_63: y_5 + y_42 + y_63 + y_66 + y_69 >= 1
 c_1_64: y_57 + y_64 + y_79 >= 1
 c_1_65: y_60 + y_65 + y_75 + y_87 >= 1
 c_1_66: y_7 + y_19 + y_63 + y_66 + y_69 >= 1
 c_1_67: y_9 + y_10 + y_39 + y_40 + y_59 + y_67 >= 1
 c_1_68: y_7 + y_68 >= 1
 c_1_69: y_7 + y_19 + y_63 + y_66 + y_69 >= 1
 c_1_70: y_51 + y_70 + y_72 + y_82 >= 1
 c_1_71: y_71 + y_90 >= 1
 c_1_72: y_51 + y_70 + y_72 + y_82 >= 1
 c_1_73: y_56 + y_73 + y_85 >= 1
 c_1_74: y_52 + y_56 + y_74 + y_85 >= 1
 c_1_75: y_60 + y_65 + y_75 >= 1
 c_1_76: y_16 + y_37 + y_44 + y_49 + y_76 + y_97 + y_99 >= 1
 c_1_77: y_36 + y_77 + y_89 >= 1
 c_1_78: y_11 + y_13 + y_29 + y_35 + y_78 >= 1
 c_1_79: y_57 + y_64 + y_79 >= 1
 c_1_80: y_46 + y_80 >= 1
 c_1_81: y_15 + y_23 + y_25 + y_36 + y_81 >= 1
 c_1_82: y_41 + y_43 + y_70 + y_72 + y_82 >= 1
 c_1_83: y_17 + y_20 + y_33 + y_83 >= 1
 c_1_84: y_53 + y_54 + y_84 + y_95 >= 1
 c_1_85: y_52 + y_55 + y_56 + y_73 + y_74 + y_85 >= 1
 c_1_86: y_1 + y_86 + y_87 >= 1
 c_1_87: y_27 + y_65 + y_86 + y_87 >= 1
 c_1_88: y_34 + y_88 + y_94 >= 1
 c_1_89: y_77 + y_89 >= 1
 c_1_90: y_11 + y_71 + y_90 >= 1
 c_1_91: y_14 + y_47 + y_91 >= 1
 c_1_92: y_30 + y_50 + y_58 + y_92 >= 1
 c_1_93: y_27 + y_93 >= 1
 c_1_94: y_88 + y_94 >= 1
 c_1_95: y_53 + y_54 + y_84 + y_95 + y_96 >= 1
 c_1_96: y_18 + y_53 + y_95 + y_96 >= 1
 c_1_97: y_0 + y_22 + y_37 + y_49 + y_76 + y_97 + y_99 >= 1
 c_1_98: y_8 + y_26 + y_98 >= 1
 c_1_99: y_16 + y_37 + y_49 + y_76 + y_97 + y_99 >= 1
Bounds
 Constant = 1
Binaries
 y_0 y_1 y_2 y_3 y_4 y_5 y_6 y_7 y_8 y_9 y_10 y_11 y_12 y_13 y_14 y_15 y_16
 y_17 y_18 y_19 y_20 y_21 y_22 y_23 y_24 y_25 y_26 y_27 y_28 y_29 y_30 y_31
 y_32 y_33 y_34 y_35 y_36 y_37 y_38 y_39 y_40 y_41 y_42 y_43 y_44 y_45 y_46
 y_47 y_48 y_49 y_50 y_51 y_52 y_53 y_54 y_55 y_56 y_57 y_58 y_59 y_60 y_61
 y_62 y_63 y_64 y_65 y_66 y_67 y_68 y_69 y_70 y_71 y_72 y_73 y_74 y_75 y_76
 y_77 y_78 y_79 y_80 y_81 y_82 y_83 y_84 y_85 y_86 y_87 y_88 y_89 y_90 y_91
 y_92 y_93 y_94 y_95 y_96 y_97 y_98 y_99
End
